(set-info :smt-lib-version 2.6)
(set-logic QF_SLIA)
(set-info :source |
Generated by: Joel Day, Thorsten Ehlers, Mitja Kulczynski, Federico Mora, Florin Manea, Dirk Nowotka, Danny Poulsen, Zhengyang Lu
Application: Test WOORPJE
Target solver: WOORPJE
Publications: Day, J. D., Ehlers, T., Kulczynski, M., Manea, F., Nowotka, D., & Poulsen, D. B. (2019). On solving word equations using SAT. In RP 2019
Description: Enriches a system of 30 word equations by suitable linear constraints
|)
(set-info :license "https://creativecommons.org/licenses/by/4.0/")
(set-info :category "random")
(set-info :status unknown)

(declare-fun H () String)
(declare-fun F () String)
(declare-fun A () String)
(assert (= (str.++  "afdaaeaed" H "dcbe")  (str.++  "afdaae" F "ccafbeefbcdccdcaeeccbdcbe") ))
(assert (= (str.++  "df" A "fddafddfbdbcbdeddfecddeeafdfcabad")  (str.++  "dfbfbccfddafddfbdbcbdeddfecddeeafdfcabad" "") ))
(assert (= (str.++  "dcfdeeaceacfbebbebfbccbeebdbeeeaceabacfe" "")  (str.++  "dcfdeeaceacfbebbe" A "beebdbeeeaceabacfe") ))
(assert (<=(* (str.len A) 12) 720))
(assert (<=(* (str.len H) 5) 660))
(check-sat)

(exit)
